(set-info :smt-lib-version 2.6)
(set-logic QF_LRA)
(set-info :source |
Fully parameterized specification and verification of a synchronizer   
circuit modeling metastability at various levels of refinement.     
A paper describing this specification, to be published in Designing     
Correct Circuits (DCC), 2006, is available from the authors.            

Geoffrey Brown, Indiana University <geobrown@cs.indiana.edu>
Lee Pike, Galois Connections, Inc. <leepike@galois.com>

Translated into CVC format by Leonardo de Moura.

This benchmark was automatically translated into SMT-LIB format from
CVC format using CVC Lite

|)
(set-info :category "industrial")
(set-info :status sat)
(declare-fun x_0 () Bool)
(declare-fun x_1 () Bool)
(declare-fun x_2 () Real)
(declare-fun x_3 () Real)
(declare-fun x_4 () Bool)
(declare-fun x_5 () Bool)
(declare-fun x_6 () Real)
(declare-fun x_7 () Real)
(declare-fun x_8 () Bool)
(declare-fun x_9 () Bool)
(declare-fun x_10 () Real)
(declare-fun x_11 () Real)
(declare-fun x_12 () Bool)
(declare-fun x_13 () Bool)
(declare-fun x_14 () Real)
(declare-fun x_15 () Real)
(declare-fun x_16 () Bool)
(declare-fun x_17 () Bool)
(declare-fun x_18 () Real)
(declare-fun x_19 () Real)
(declare-fun x_20 () Bool)
(declare-fun x_21 () Bool)
(declare-fun x_22 () Real)
(declare-fun x_23 () Real)
(declare-fun x_24 () Bool)
(declare-fun x_25 () Bool)
(declare-fun x_26 () Real)
(declare-fun x_27 () Real)
(declare-fun x_28 () Bool)
(declare-fun x_29 () Bool)
(declare-fun x_30 () Real)
(declare-fun x_31 () Real)
(declare-fun x_32 () Bool)
(declare-fun x_33 () Bool)
(declare-fun x_34 () Real)
(declare-fun x_35 () Real)
(declare-fun x_36 () Bool)
(declare-fun x_37 () Bool)
(declare-fun x_38 () Real)
(declare-fun x_39 () Real)
(declare-fun x_40 () Bool)
(declare-fun x_41 () Bool)
(declare-fun x_42 () Real)
(declare-fun x_43 () Real)
(declare-fun x_44 () Real)
(declare-fun x_45 () Real)
(declare-fun x_46 () Real)
(declare-fun x_47 () Real)
(declare-fun x_48 () Real)
(declare-fun x_49 () Real)
(declare-fun x_50 () Real)
(declare-fun x_51 () Real)
(declare-fun x_52 () Real)
(declare-fun x_53 () Real)
(declare-fun x_54 () Real)
(declare-fun x_55 () Real)
(declare-fun x_56 () Real)
(declare-fun x_57 () Real)
(declare-fun x_58 () Real)
(declare-fun x_59 () Real)
(declare-fun x_60 () Real)
(declare-fun x_61 () Real)
(declare-fun x_62 () Real)
(declare-fun x_63 () Real)
(declare-fun x_64 () Real)
(declare-fun x_65 () Real)
(declare-fun x_66 () Real)
(declare-fun x_67 () Real)
(declare-fun x_68 () Real)
(declare-fun x_69 () Real)
(declare-fun x_70 () Real)
(declare-fun x_71 () Real)
(declare-fun x_72 () Real)
(declare-fun x_73 () Real)
(declare-fun x_74 () Real)
(declare-fun x_75 () Real)
(declare-fun x_76 () Real)
(declare-fun x_77 () Real)
(declare-fun x_78 () Real)
(declare-fun x_79 () Real)
(declare-fun x_80 () Real)
(declare-fun x_81 () Real)
(declare-fun x_82 () Real)
(declare-fun x_83 () Real)
(declare-fun x_84 () Real)
(declare-fun x_85 () Real)
(declare-fun x_86 () Real)
(declare-fun x_87 () Real)
(declare-fun x_88 () Real)
(declare-fun x_89 () Real)
(declare-fun x_90 () Real)
(declare-fun x_91 () Real)
(declare-fun x_92 () Real)
(declare-fun x_93 () Real)
(declare-fun x_94 () Real)
(declare-fun x_95 () Real)
(declare-fun x_96 () Real)
(declare-fun x_97 () Real)
(declare-fun x_98 () Real)
(declare-fun x_99 () Real)
(declare-fun x_100 () Real)
(declare-fun x_101 () Real)
(declare-fun x_102 () Real)
(declare-fun x_103 () Real)
(declare-fun x_104 () Real)
(declare-fun x_105 () Real)
(declare-fun x_106 () Real)
(declare-fun x_107 () Real)
(declare-fun x_108 () Bool)
(declare-fun x_109 () Bool)
(declare-fun x_110 () Real)
(declare-fun x_111 () Bool)
(declare-fun x_112 () Bool)
(declare-fun x_113 () Bool)
(declare-fun x_114 () Bool)
(declare-fun x_115 () Bool)
(declare-fun x_116 () Real)
(declare-fun x_117 () Bool)
(declare-fun x_118 () Real)
(declare-fun x_119 () Real)
(declare-fun x_120 () Real)
(declare-fun x_121 () Bool)
(declare-fun x_122 () Real)
(declare-fun x_123 () Bool)
(declare-fun x_124 () Bool)
(declare-fun x_125 () Real)
(declare-fun x_126 () Bool)
(declare-fun x_127 () Real)
(declare-fun x_128 () Real)
(declare-fun x_129 () Real)
(declare-fun x_130 () Bool)
(declare-fun x_131 () Real)
(declare-fun x_132 () Bool)
(declare-fun x_133 () Bool)
(declare-fun x_134 () Real)
(declare-fun x_135 () Bool)
(declare-fun x_136 () Real)
(declare-fun x_137 () Real)
(declare-fun x_138 () Real)
(declare-fun x_139 () Bool)
(declare-fun x_140 () Real)
(declare-fun x_141 () Bool)
(declare-fun x_142 () Bool)
(declare-fun x_143 () Real)
(declare-fun x_144 () Bool)
(declare-fun x_145 () Real)
(declare-fun x_146 () Real)
(declare-fun x_147 () Real)
(declare-fun x_148 () Bool)
(declare-fun x_149 () Real)
(declare-fun x_150 () Bool)
(declare-fun x_151 () Bool)
(declare-fun x_152 () Real)
(declare-fun x_153 () Bool)
(declare-fun x_154 () Real)
(declare-fun x_155 () Real)
(declare-fun x_156 () Real)
(declare-fun x_157 () Bool)
(declare-fun x_158 () Real)
(declare-fun x_159 () Bool)
(declare-fun x_160 () Bool)
(declare-fun x_161 () Real)
(declare-fun x_162 () Bool)
(declare-fun x_163 () Real)
(declare-fun x_164 () Real)
(declare-fun x_165 () Real)
(declare-fun x_166 () Bool)
(declare-fun x_167 () Real)
(declare-fun x_168 () Bool)
(declare-fun x_169 () Bool)
(declare-fun x_170 () Real)
(declare-fun x_171 () Bool)
(declare-fun x_172 () Real)
(declare-fun x_173 () Real)
(declare-fun x_174 () Real)
(declare-fun x_175 () Bool)
(declare-fun x_176 () Real)
(declare-fun x_177 () Bool)
(declare-fun x_178 () Bool)
(declare-fun x_179 () Real)
(declare-fun x_180 () Bool)
(declare-fun x_181 () Real)
(declare-fun x_182 () Real)
(declare-fun x_183 () Real)
(declare-fun x_184 () Bool)
(declare-fun x_185 () Real)
(declare-fun x_186 () Bool)
(declare-fun x_187 () Bool)
(declare-fun x_188 () Real)
(declare-fun x_189 () Bool)
(declare-fun x_190 () Real)
(declare-fun x_191 () Real)
(declare-fun x_192 () Real)
(declare-fun x_193 () Bool)
(declare-fun x_194 () Real)
(declare-fun x_195 () Bool)
(declare-fun x_196 () Bool)
(declare-fun x_197 () Real)
(declare-fun x_198 () Bool)
(declare-fun x_199 () Real)
(declare-fun x_200 () Real)
(declare-fun x_201 () Real)
(declare-fun x_202 () Bool)
(declare-fun x_203 () Real)
(declare-fun x_204 () Real)
(declare-fun x_205 () Bool)
(declare-fun x_206 () Bool)
(declare-fun x_207 () Bool)
(declare-fun x_208 () Bool)
(declare-fun x_209 () Real)
(declare-fun x_210 () Bool)
(declare-fun x_211 () Real)
(declare-fun x_212 () Real)
(declare-fun x_213 () Real)
(declare-fun x_214 () Real)
(assert (let ((?v_22 (ite (<= x_44 x_45) x_44 x_45)) (?v_20 (ite (<= x_53 x_54) x_53 x_54)) (?v_18 (ite (<= x_58 x_59) x_58 x_59)) (?v_16 (ite (<= x_63 x_64) x_63 x_64)) (?v_14 (ite (<= x_68 x_69) x_68 x_69)) (?v_12 (ite (<= x_73 x_74) x_73 x_74)) (?v_10 (ite (<= x_78 x_79) x_78 x_79)) (?v_8 (ite (<= x_83 x_84) x_83 x_84)) (?v_6 (ite (<= x_88 x_89) x_88 x_89)) (?v_4 (ite (<= x_93 x_94) x_93 x_94)) (?v_2 (ite (<= x_98 x_99) x_98 x_99)) (?v_0 (ite (<= x_103 x_104) x_103 x_104)) (?v_169 (= x_55 x_49)) (?v_171 (= x_45 x_54)) (?v_173 (= x_57 x_51)) (?v_167 (= x_44 x_53))) (let ((?v_174 (not ?v_167)) (?v_177 (= x_56 x_50)) (?v_164 (= x_108 x_109)) (?v_165 (= x_7 x_3)) (?v_168 (ite (<= x_45 x_44) x_45 x_44)) (?v_155 (= x_60 x_55)) (?v_157 (= x_54 x_59)) (?v_159 (= x_62 x_57)) (?v_153 (= x_53 x_58))) (let ((?v_160 (not ?v_153)) (?v_163 (= x_61 x_56)) (?v_150 (= x_121 x_108)) (?v_151 (= x_11 x_7)) (?v_154 (ite (<= x_54 x_53) x_54 x_53)) (?v_141 (= x_65 x_60)) (?v_143 (= x_59 x_64)) (?v_145 (= x_67 x_62)) (?v_139 (= x_58 x_63))) (let ((?v_146 (not ?v_139)) (?v_149 (= x_66 x_61)) (?v_136 (= x_130 x_121)) (?v_137 (= x_15 x_11)) (?v_140 (ite (<= x_59 x_58) x_59 x_58)) (?v_127 (= x_70 x_65)) (?v_129 (= x_64 x_69)) (?v_131 (= x_72 x_67)) (?v_125 (= x_63 x_68))) (let ((?v_132 (not ?v_125)) (?v_135 (= x_71 x_66)) (?v_122 (= x_139 x_130)) (?v_123 (= x_19 x_15)) (?v_126 (ite (<= x_64 x_63) x_64 x_63)) (?v_113 (= x_75 x_70)) (?v_115 (= x_69 x_74)) (?v_117 (= x_77 x_72)) (?v_111 (= x_68 x_73))) (let ((?v_118 (not ?v_111)) (?v_121 (= x_76 x_71)) (?v_108 (= x_148 x_139)) (?v_109 (= x_23 x_19)) (?v_112 (ite (<= x_69 x_68) x_69 x_68)) (?v_99 (= x_80 x_75)) (?v_101 (= x_74 x_79)) (?v_103 (= x_82 x_77)) (?v_97 (= x_73 x_78))) (let ((?v_104 (not ?v_97)) (?v_107 (= x_81 x_76)) (?v_94 (= x_157 x_148)) (?v_95 (= x_27 x_23)) (?v_98 (ite (<= x_74 x_73) x_74 x_73)) (?v_85 (= x_85 x_80)) (?v_87 (= x_79 x_84)) (?v_89 (= x_87 x_82)) (?v_83 (= x_78 x_83))) (let ((?v_90 (not ?v_83)) (?v_93 (= x_86 x_81)) (?v_80 (= x_166 x_157)) (?v_81 (= x_31 x_27)) (?v_84 (ite (<= x_79 x_78) x_79 x_78)) (?v_71 (= x_90 x_85)) (?v_73 (= x_84 x_89)) (?v_75 (= x_92 x_87)) (?v_69 (= x_83 x_88))) (let ((?v_76 (not ?v_69)) (?v_79 (= x_91 x_86)) (?v_66 (= x_175 x_166)) (?v_67 (= x_35 x_31)) (?v_70 (ite (<= x_84 x_83) x_84 x_83)) (?v_57 (= x_95 x_90)) (?v_59 (= x_89 x_94)) (?v_61 (= x_97 x_92)) (?v_55 (= x_88 x_93))) (let ((?v_62 (not ?v_55)) (?v_65 (= x_96 x_91)) (?v_52 (= x_184 x_175)) (?v_53 (= x_39 x_35)) (?v_56 (ite (<= x_89 x_88) x_89 x_88)) (?v_43 (= x_100 x_95)) (?v_45 (= x_94 x_99)) (?v_47 (= x_102 x_97)) (?v_41 (= x_93 x_98))) (let ((?v_48 (not ?v_41)) (?v_51 (= x_101 x_96)) (?v_38 (= x_193 x_184)) (?v_39 (= x_43 x_39)) (?v_42 (ite (<= x_94 x_93) x_94 x_93)) (?v_29 (= x_105 x_100)) (?v_31 (= x_99 x_104)) (?v_33 (= x_107 x_102)) (?v_27 (= x_98 x_103))) (let ((?v_34 (not ?v_27)) (?v_37 (= x_106 x_101)) (?v_24 (= x_202 x_193)) (?v_25 (= x_203 x_43)) (?v_28 (ite (<= x_99 x_98) x_99 x_98)) (?v_26 (= x_206 x_41)) (?v_36 (= x_43 x_203)) (?v_40 (= x_41 x_37)) (?v_50 (= x_39 x_43)) (?v_54 (= x_37 x_33)) (?v_64 (= x_35 x_39)) (?v_68 (= x_33 x_29)) (?v_78 (= x_31 x_35)) (?v_82 (= x_29 x_25)) (?v_92 (= x_27 x_31)) (?v_96 (= x_25 x_21)) (?v_106 (= x_23 x_27)) (?v_110 (= x_21 x_17)) (?v_120 (= x_19 x_23)) (?v_124 (= x_17 x_13)) (?v_134 (= x_15 x_19)) (?v_138 (= x_13 x_9)) (?v_148 (= x_11 x_15)) (?v_152 (= x_9 x_5)) (?v_162 (= x_7 x_11)) (?v_166 (= x_5 x_1)) (?v_176 (= x_3 x_7)) (?v_30 (<= x_102 ?v_2)) (?v_44 (<= x_97 ?v_4)) (?v_58 (<= x_92 ?v_6)) (?v_72 (<= x_87 ?v_8)) (?v_86 (<= x_82 ?v_10)) (?v_100 (<= x_77 ?v_12)) (?v_114 (<= x_72 ?v_14)) (?v_128 (<= x_67 ?v_16)) (?v_142 (<= x_62 ?v_18)) (?v_156 (<= x_57 ?v_20)) (?v_170 (<= x_51 ?v_22)) (?v_1 (+ ?v_0 x_48)) (?v_32 (+ ?v_2 x_52)) (?v_3 (+ ?v_2 x_48)) (?v_46 (+ ?v_4 x_52)) (?v_5 (+ ?v_4 x_48)) (?v_60 (+ ?v_6 x_52)) (?v_7 (+ ?v_6 x_48)) (?v_74 (+ ?v_8 x_52)) (?v_9 (+ ?v_8 x_48)) (?v_88 (+ ?v_10 x_52)) (?v_11 (+ ?v_10 x_48)) (?v_102 (+ ?v_12 x_52)) (?v_13 (+ ?v_12 x_48)) (?v_116 (+ ?v_14 x_52)) (?v_15 (+ ?v_14 x_48)) (?v_130 (+ ?v_16 x_52)) (?v_17 (+ ?v_16 x_48)) (?v_144 (+ ?v_18 x_52)) (?v_19 (+ ?v_18 x_48)) (?v_158 (+ ?v_20 x_52)) (?v_21 (+ ?v_20 x_48)) (?v_172 (+ ?v_22 x_52)) (?v_23 (+ ?v_22 x_48))) (let ((?v_35 (+ ?v_28 x_48)) (?v_49 (+ ?v_42 x_48)) (?v_63 (+ ?v_56 x_48)) (?v_77 (+ ?v_70 x_48)) (?v_91 (+ ?v_84 x_48)) (?v_105 (+ ?v_98 x_48)) (?v_119 (+ ?v_112 x_48)) (?v_133 (+ ?v_126 x_48)) (?v_147 (+ ?v_140 x_48)) (?v_161 (+ ?v_154 x_48)) (?v_175 (+ ?v_168 x_48))) (and (and (and (and (and (and (and (and (and (and (and (and (and (and (and (and (and (and (and (and (and (and (and (and (and (and (and (and (and (and (and (and (and (and (and (and (and (and (and (and (and (and (and (and (and (and (and (and (and (and (and (and (and (and (and (and (and (and (and (and (and (and (and (and (and (and (and (and (and (and (and (and (and (and (and (and (and (and (and (and (and (and (and (and (and (and (and (and (and (and (and (and (and (and (and (and (and (and (and (and (and (and (and (and (and (and (and (and (and (and (and (and (and (and (and (and (and (and (and (and (and (and (and (and (and (and (and (and (and (and (and (and (and (and (and (and (and (and (and (and (and (and (and (and (and (and (and (and (and (and (and (and (and (and (and (and (and (and (and (and (> x_46 0) (> x_47 0)) (>= x_48 0)) (< x_48 x_46)) (< x_48 x_47)) (>= x_52 0)) (< x_52 x_46)) (< x_52 x_47)) (or (= x_40 x_41) (= x_42 x_43))) (or (= x_36 x_37) (= x_38 x_39))) (or (= x_32 x_33) (= x_34 x_35))) (or (= x_28 x_29) (= x_30 x_31))) (or (= x_24 x_25) (= x_26 x_27))) (or (= x_20 x_21) (= x_22 x_23))) (or (= x_16 x_17) (= x_18 x_19))) (or (= x_12 x_13) (= x_14 x_15))) (or (= x_8 x_9) (= x_10 x_11))) (or (= x_4 x_5) (= x_6 x_7))) (or (= x_0 x_1) (= x_2 x_3))) (or (<= x_105 ?v_0) (<= (- (+ x_105 x_47) x_48) x_104))) (or (<= x_106 ?v_0) (<= (- (+ x_106 x_47) x_48) x_104))) (or (<= x_107 ?v_0) (<= (- (+ x_107 x_46) x_52) x_103))) (<= x_107 (+ ?v_0 x_52))) (<= x_106 ?v_1)) (<= x_105 ?v_1)) (<= ?v_0 x_103)) (<= ?v_0 x_104)) (or (<= x_100 ?v_2) (<= (- (+ x_100 x_47) x_48) x_99))) (or (<= x_101 ?v_2) (<= (- (+ x_101 x_47) x_48) x_99))) (or ?v_30 (<= (- (+ x_102 x_46) x_52) x_98))) (<= x_102 ?v_32)) (<= x_101 ?v_3)) (<= x_100 ?v_3)) (<= ?v_2 x_98)) (<= ?v_2 x_99)) (or (<= x_95 ?v_4) (<= (- (+ x_95 x_47) x_48) x_94))) (or (<= x_96 ?v_4) (<= (- (+ x_96 x_47) x_48) x_94))) (or ?v_44 (<= (- (+ x_97 x_46) x_52) x_93))) (<= x_97 ?v_46)) (<= x_96 ?v_5)) (<= x_95 ?v_5)) (<= ?v_4 x_93)) (<= ?v_4 x_94)) (or (<= x_90 ?v_6) (<= (- (+ x_90 x_47) x_48) x_89))) (or (<= x_91 ?v_6) (<= (- (+ x_91 x_47) x_48) x_89))) (or ?v_58 (<= (- (+ x_92 x_46) x_52) x_88))) (<= x_92 ?v_60)) (<= x_91 ?v_7)) (<= x_90 ?v_7)) (<= ?v_6 x_88)) (<= ?v_6 x_89)) (or (<= x_85 ?v_8) (<= (- (+ x_85 x_47) x_48) x_84))) (or (<= x_86 ?v_8) (<= (- (+ x_86 x_47) x_48) x_84))) (or ?v_72 (<= (- (+ x_87 x_46) x_52) x_83))) (<= x_87 ?v_74)) (<= x_86 ?v_9)) (<= x_85 ?v_9)) (<= ?v_8 x_83)) (<= ?v_8 x_84)) (or (<= x_80 ?v_10) (<= (- (+ x_80 x_47) x_48) x_79))) (or (<= x_81 ?v_10) (<= (- (+ x_81 x_47) x_48) x_79))) (or ?v_86 (<= (- (+ x_82 x_46) x_52) x_78))) (<= x_82 ?v_88)) (<= x_81 ?v_11)) (<= x_80 ?v_11)) (<= ?v_10 x_78)) (<= ?v_10 x_79)) (or (<= x_75 ?v_12) (<= (- (+ x_75 x_47) x_48) x_74))) (or (<= x_76 ?v_12) (<= (- (+ x_76 x_47) x_48) x_74))) (or ?v_100 (<= (- (+ x_77 x_46) x_52) x_73))) (<= x_77 ?v_102)) (<= x_76 ?v_13)) (<= x_75 ?v_13)) (<= ?v_12 x_73)) (<= ?v_12 x_74)) (or (<= x_70 ?v_14) (<= (- (+ x_70 x_47) x_48) x_69))) (or (<= x_71 ?v_14) (<= (- (+ x_71 x_47) x_48) x_69))) (or ?v_114 (<= (- (+ x_72 x_46) x_52) x_68))) (<= x_72 ?v_116)) (<= x_71 ?v_15)) (<= x_70 ?v_15)) (<= ?v_14 x_68)) (<= ?v_14 x_69)) (or (<= x_65 ?v_16) (<= (- (+ x_65 x_47) x_48) x_64))) (or (<= x_66 ?v_16) (<= (- (+ x_66 x_47) x_48) x_64))) (or ?v_128 (<= (- (+ x_67 x_46) x_52) x_63))) (<= x_67 ?v_130)) (<= x_66 ?v_17)) (<= x_65 ?v_17)) (<= ?v_16 x_63)) (<= ?v_16 x_64)) (or (<= x_60 ?v_18) (<= (- (+ x_60 x_47) x_48) x_59))) (or (<= x_61 ?v_18) (<= (- (+ x_61 x_47) x_48) x_59))) (or ?v_142 (<= (- (+ x_62 x_46) x_52) x_58))) (<= x_62 ?v_144)) (<= x_61 ?v_19)) (<= x_60 ?v_19)) (<= ?v_18 x_58)) (<= ?v_18 x_59)) (or (<= x_55 ?v_20) (<= (- (+ x_55 x_47) x_48) x_54))) (or (<= x_56 ?v_20) (<= (- (+ x_56 x_47) x_48) x_54))) (or ?v_156 (<= (- (+ x_57 x_46) x_52) x_53))) (<= x_57 ?v_158)) (<= x_56 ?v_21)) (<= x_55 ?v_21)) (<= ?v_20 x_53)) (<= ?v_20 x_54)) (or (<= x_49 ?v_22) (<= (- (+ x_49 x_47) x_48) x_45))) (or (<= x_50 ?v_22) (<= (- (+ x_50 x_47) x_48) x_45))) (or ?v_170 (<= (- (+ x_51 x_46) x_52) x_44))) (<= x_51 ?v_172)) (<= x_50 ?v_23)) (<= x_49 ?v_23)) (<= ?v_22 x_44)) (<= ?v_22 x_45)) (or (and (and (and (and (and (and (and (and (and (= x_204 0) (= x_205 x_198)) (= ?v_2 x_98)) (<= (+ ?v_2 x_46) x_103)) (or ?v_26 (= x_206 x_40))) (= x_207 x_195)) (= x_208 x_196)) (= x_104 x_99)) ?v_24) ?v_25) (and (and (and (and (and (and (and (and (and (= x_204 1) (= x_208 x_195)) (= ?v_2 x_99)) (<= (+ ?v_2 x_47) x_104)) (or (and (and (= x_209 0) ?v_24) ?v_25) (and (and (= x_209 1) (= x_193 x_196)) (= x_202 (not x_193))))) (= x_210 x_198)) (= x_205 x_40)) (= x_211 x_42)) (= x_103 x_98)) ?v_26))) (or (or (and (and (and (= x_212 0) ?v_34) (or (not (<= x_100 ?v_28)) (= x_210 x_193))) ?v_29) (and (and (and (= x_212 1) ?v_27) (xor x_193 x_202)) (= x_105 ?v_35))) (and (and (and (= x_212 2) ?v_27) (= x_193 x_202)) ?v_29))) (or (or (and (and (and (= x_213 0) (not ?v_31)) (or (not ?v_30) (= x_207 x_41))) ?v_33) (and (and (and (= x_213 1) ?v_31) (xor x_41 x_206)) (= x_107 ?v_32))) (and (and (and (= x_213 2) ?v_31) (= x_41 x_206)) ?v_33))) (or (or (and (and (and (= x_214 0) ?v_34) (or (not (<= x_101 ?v_28)) (= x_211 x_43))) ?v_37) (and (and (and (= x_214 1) ?v_27) (not ?v_36)) (= x_106 ?v_35))) (and (and (and (= x_214 2) ?v_27) ?v_36) ?v_37))) (or (and (and (and (and (and (and (and (and (and (= x_194 0) (= x_40 x_189)) (= ?v_4 x_93)) (<= (+ ?v_4 x_46) x_98)) (or ?v_40 (= x_41 x_36))) (= x_195 x_186)) (= x_196 x_187)) (= x_99 x_94)) ?v_38) ?v_39) (and (and (and (and (and (and (and (and (and (= x_194 1) (= x_196 x_186)) (= ?v_4 x_94)) (<= (+ ?v_4 x_47) x_99)) (or (and (and (= x_197 0) ?v_38) ?v_39) (and (and (= x_197 1) (= x_184 x_187)) (= x_193 (not x_184))))) (= x_198 x_189)) (= x_40 x_36)) (= x_42 x_38)) (= x_98 x_93)) ?v_40))) (or (or (and (and (and (= x_199 0) ?v_48) (or (not (<= x_95 ?v_42)) (= x_198 x_184))) ?v_43) (and (and (and (= x_199 1) ?v_41) (xor x_184 x_193)) (= x_100 ?v_49))) (and (and (and (= x_199 2) ?v_41) (= x_184 x_193)) ?v_43))) (or (or (and (and (and (= x_200 0) (not ?v_45)) (or (not ?v_44) (= x_195 x_37))) ?v_47) (and (and (and (= x_200 1) ?v_45) (xor x_37 x_41)) (= x_102 ?v_46))) (and (and (and (= x_200 2) ?v_45) (= x_37 x_41)) ?v_47))) (or (or (and (and (and (= x_201 0) ?v_48) (or (not (<= x_96 ?v_42)) (= x_42 x_39))) ?v_51) (and (and (and (= x_201 1) ?v_41) (not ?v_50)) (= x_101 ?v_49))) (and (and (and (= x_201 2) ?v_41) ?v_50) ?v_51))) (or (and (and (and (and (and (and (and (and (and (= x_185 0) (= x_36 x_180)) (= ?v_6 x_88)) (<= (+ ?v_6 x_46) x_93)) (or ?v_54 (= x_37 x_32))) (= x_186 x_177)) (= x_187 x_178)) (= x_94 x_89)) ?v_52) ?v_53) (and (and (and (and (and (and (and (and (and (= x_185 1) (= x_187 x_177)) (= ?v_6 x_89)) (<= (+ ?v_6 x_47) x_94)) (or (and (and (= x_188 0) ?v_52) ?v_53) (and (and (= x_188 1) (= x_175 x_178)) (= x_184 (not x_175))))) (= x_189 x_180)) (= x_36 x_32)) (= x_38 x_34)) (= x_93 x_88)) ?v_54))) (or (or (and (and (and (= x_190 0) ?v_62) (or (not (<= x_90 ?v_56)) (= x_189 x_175))) ?v_57) (and (and (and (= x_190 1) ?v_55) (xor x_175 x_184)) (= x_95 ?v_63))) (and (and (and (= x_190 2) ?v_55) (= x_175 x_184)) ?v_57))) (or (or (and (and (and (= x_191 0) (not ?v_59)) (or (not ?v_58) (= x_186 x_33))) ?v_61) (and (and (and (= x_191 1) ?v_59) (xor x_33 x_37)) (= x_97 ?v_60))) (and (and (and (= x_191 2) ?v_59) (= x_33 x_37)) ?v_61))) (or (or (and (and (and (= x_192 0) ?v_62) (or (not (<= x_91 ?v_56)) (= x_38 x_35))) ?v_65) (and (and (and (= x_192 1) ?v_55) (not ?v_64)) (= x_96 ?v_63))) (and (and (and (= x_192 2) ?v_55) ?v_64) ?v_65))) (or (and (and (and (and (and (and (and (and (and (= x_176 0) (= x_32 x_171)) (= ?v_8 x_83)) (<= (+ ?v_8 x_46) x_88)) (or ?v_68 (= x_33 x_28))) (= x_177 x_168)) (= x_178 x_169)) (= x_89 x_84)) ?v_66) ?v_67) (and (and (and (and (and (and (and (and (and (= x_176 1) (= x_178 x_168)) (= ?v_8 x_84)) (<= (+ ?v_8 x_47) x_89)) (or (and (and (= x_179 0) ?v_66) ?v_67) (and (and (= x_179 1) (= x_166 x_169)) (= x_175 (not x_166))))) (= x_180 x_171)) (= x_32 x_28)) (= x_34 x_30)) (= x_88 x_83)) ?v_68))) (or (or (and (and (and (= x_181 0) ?v_76) (or (not (<= x_85 ?v_70)) (= x_180 x_166))) ?v_71) (and (and (and (= x_181 1) ?v_69) (xor x_166 x_175)) (= x_90 ?v_77))) (and (and (and (= x_181 2) ?v_69) (= x_166 x_175)) ?v_71))) (or (or (and (and (and (= x_182 0) (not ?v_73)) (or (not ?v_72) (= x_177 x_29))) ?v_75) (and (and (and (= x_182 1) ?v_73) (xor x_29 x_33)) (= x_92 ?v_74))) (and (and (and (= x_182 2) ?v_73) (= x_29 x_33)) ?v_75))) (or (or (and (and (and (= x_183 0) ?v_76) (or (not (<= x_86 ?v_70)) (= x_34 x_31))) ?v_79) (and (and (and (= x_183 1) ?v_69) (not ?v_78)) (= x_91 ?v_77))) (and (and (and (= x_183 2) ?v_69) ?v_78) ?v_79))) (or (and (and (and (and (and (and (and (and (and (= x_167 0) (= x_28 x_162)) (= ?v_10 x_78)) (<= (+ ?v_10 x_46) x_83)) (or ?v_82 (= x_29 x_24))) (= x_168 x_159)) (= x_169 x_160)) (= x_84 x_79)) ?v_80) ?v_81) (and (and (and (and (and (and (and (and (and (= x_167 1) (= x_169 x_159)) (= ?v_10 x_79)) (<= (+ ?v_10 x_47) x_84)) (or (and (and (= x_170 0) ?v_80) ?v_81) (and (and (= x_170 1) (= x_157 x_160)) (= x_166 (not x_157))))) (= x_171 x_162)) (= x_28 x_24)) (= x_30 x_26)) (= x_83 x_78)) ?v_82))) (or (or (and (and (and (= x_172 0) ?v_90) (or (not (<= x_80 ?v_84)) (= x_171 x_157))) ?v_85) (and (and (and (= x_172 1) ?v_83) (xor x_157 x_166)) (= x_85 ?v_91))) (and (and (and (= x_172 2) ?v_83) (= x_157 x_166)) ?v_85))) (or (or (and (and (and (= x_173 0) (not ?v_87)) (or (not ?v_86) (= x_168 x_25))) ?v_89) (and (and (and (= x_173 1) ?v_87) (xor x_25 x_29)) (= x_87 ?v_88))) (and (and (and (= x_173 2) ?v_87) (= x_25 x_29)) ?v_89))) (or (or (and (and (and (= x_174 0) ?v_90) (or (not (<= x_81 ?v_84)) (= x_30 x_27))) ?v_93) (and (and (and (= x_174 1) ?v_83) (not ?v_92)) (= x_86 ?v_91))) (and (and (and (= x_174 2) ?v_83) ?v_92) ?v_93))) (or (and (and (and (and (and (and (and (and (and (= x_158 0) (= x_24 x_153)) (= ?v_12 x_73)) (<= (+ ?v_12 x_46) x_78)) (or ?v_96 (= x_25 x_20))) (= x_159 x_150)) (= x_160 x_151)) (= x_79 x_74)) ?v_94) ?v_95) (and (and (and (and (and (and (and (and (and (= x_158 1) (= x_160 x_150)) (= ?v_12 x_74)) (<= (+ ?v_12 x_47) x_79)) (or (and (and (= x_161 0) ?v_94) ?v_95) (and (and (= x_161 1) (= x_148 x_151)) (= x_157 (not x_148))))) (= x_162 x_153)) (= x_24 x_20)) (= x_26 x_22)) (= x_78 x_73)) ?v_96))) (or (or (and (and (and (= x_163 0) ?v_104) (or (not (<= x_75 ?v_98)) (= x_162 x_148))) ?v_99) (and (and (and (= x_163 1) ?v_97) (xor x_148 x_157)) (= x_80 ?v_105))) (and (and (and (= x_163 2) ?v_97) (= x_148 x_157)) ?v_99))) (or (or (and (and (and (= x_164 0) (not ?v_101)) (or (not ?v_100) (= x_159 x_21))) ?v_103) (and (and (and (= x_164 1) ?v_101) (xor x_21 x_25)) (= x_82 ?v_102))) (and (and (and (= x_164 2) ?v_101) (= x_21 x_25)) ?v_103))) (or (or (and (and (and (= x_165 0) ?v_104) (or (not (<= x_76 ?v_98)) (= x_26 x_23))) ?v_107) (and (and (and (= x_165 1) ?v_97) (not ?v_106)) (= x_81 ?v_105))) (and (and (and (= x_165 2) ?v_97) ?v_106) ?v_107))) (or (and (and (and (and (and (and (and (and (and (= x_149 0) (= x_20 x_144)) (= ?v_14 x_68)) (<= (+ ?v_14 x_46) x_73)) (or ?v_110 (= x_21 x_16))) (= x_150 x_141)) (= x_151 x_142)) (= x_74 x_69)) ?v_108) ?v_109) (and (and (and (and (and (and (and (and (and (= x_149 1) (= x_151 x_141)) (= ?v_14 x_69)) (<= (+ ?v_14 x_47) x_74)) (or (and (and (= x_152 0) ?v_108) ?v_109) (and (and (= x_152 1) (= x_139 x_142)) (= x_148 (not x_139))))) (= x_153 x_144)) (= x_20 x_16)) (= x_22 x_18)) (= x_73 x_68)) ?v_110))) (or (or (and (and (and (= x_154 0) ?v_118) (or (not (<= x_70 ?v_112)) (= x_153 x_139))) ?v_113) (and (and (and (= x_154 1) ?v_111) (xor x_139 x_148)) (= x_75 ?v_119))) (and (and (and (= x_154 2) ?v_111) (= x_139 x_148)) ?v_113))) (or (or (and (and (and (= x_155 0) (not ?v_115)) (or (not ?v_114) (= x_150 x_17))) ?v_117) (and (and (and (= x_155 1) ?v_115) (xor x_17 x_21)) (= x_77 ?v_116))) (and (and (and (= x_155 2) ?v_115) (= x_17 x_21)) ?v_117))) (or (or (and (and (and (= x_156 0) ?v_118) (or (not (<= x_71 ?v_112)) (= x_22 x_19))) ?v_121) (and (and (and (= x_156 1) ?v_111) (not ?v_120)) (= x_76 ?v_119))) (and (and (and (= x_156 2) ?v_111) ?v_120) ?v_121))) (or (and (and (and (and (and (and (and (and (and (= x_140 0) (= x_16 x_135)) (= ?v_16 x_63)) (<= (+ ?v_16 x_46) x_68)) (or ?v_124 (= x_17 x_12))) (= x_141 x_132)) (= x_142 x_133)) (= x_69 x_64)) ?v_122) ?v_123) (and (and (and (and (and (and (and (and (and (= x_140 1) (= x_142 x_132)) (= ?v_16 x_64)) (<= (+ ?v_16 x_47) x_69)) (or (and (and (= x_143 0) ?v_122) ?v_123) (and (and (= x_143 1) (= x_130 x_133)) (= x_139 (not x_130))))) (= x_144 x_135)) (= x_16 x_12)) (= x_18 x_14)) (= x_68 x_63)) ?v_124))) (or (or (and (and (and (= x_145 0) ?v_132) (or (not (<= x_65 ?v_126)) (= x_144 x_130))) ?v_127) (and (and (and (= x_145 1) ?v_125) (xor x_130 x_139)) (= x_70 ?v_133))) (and (and (and (= x_145 2) ?v_125) (= x_130 x_139)) ?v_127))) (or (or (and (and (and (= x_146 0) (not ?v_129)) (or (not ?v_128) (= x_141 x_13))) ?v_131) (and (and (and (= x_146 1) ?v_129) (xor x_13 x_17)) (= x_72 ?v_130))) (and (and (and (= x_146 2) ?v_129) (= x_13 x_17)) ?v_131))) (or (or (and (and (and (= x_147 0) ?v_132) (or (not (<= x_66 ?v_126)) (= x_18 x_15))) ?v_135) (and (and (and (= x_147 1) ?v_125) (not ?v_134)) (= x_71 ?v_133))) (and (and (and (= x_147 2) ?v_125) ?v_134) ?v_135))) (or (and (and (and (and (and (and (and (and (and (= x_131 0) (= x_12 x_126)) (= ?v_18 x_58)) (<= (+ ?v_18 x_46) x_63)) (or ?v_138 (= x_13 x_8))) (= x_132 x_123)) (= x_133 x_124)) (= x_64 x_59)) ?v_136) ?v_137) (and (and (and (and (and (and (and (and (and (= x_131 1) (= x_133 x_123)) (= ?v_18 x_59)) (<= (+ ?v_18 x_47) x_64)) (or (and (and (= x_134 0) ?v_136) ?v_137) (and (and (= x_134 1) (= x_121 x_124)) (= x_130 (not x_121))))) (= x_135 x_126)) (= x_12 x_8)) (= x_14 x_10)) (= x_63 x_58)) ?v_138))) (or (or (and (and (and (= x_136 0) ?v_146) (or (not (<= x_60 ?v_140)) (= x_135 x_121))) ?v_141) (and (and (and (= x_136 1) ?v_139) (xor x_121 x_130)) (= x_65 ?v_147))) (and (and (and (= x_136 2) ?v_139) (= x_121 x_130)) ?v_141))) (or (or (and (and (and (= x_137 0) (not ?v_143)) (or (not ?v_142) (= x_132 x_9))) ?v_145) (and (and (and (= x_137 1) ?v_143) (xor x_9 x_13)) (= x_67 ?v_144))) (and (and (and (= x_137 2) ?v_143) (= x_9 x_13)) ?v_145))) (or (or (and (and (and (= x_138 0) ?v_146) (or (not (<= x_61 ?v_140)) (= x_14 x_11))) ?v_149) (and (and (and (= x_138 1) ?v_139) (not ?v_148)) (= x_66 ?v_147))) (and (and (and (= x_138 2) ?v_139) ?v_148) ?v_149))) (or (and (and (and (and (and (and (and (and (and (= x_122 0) (= x_8 x_117)) (= ?v_20 x_53)) (<= (+ ?v_20 x_46) x_58)) (or ?v_152 (= x_9 x_4))) (= x_123 x_112)) (= x_124 x_114)) (= x_59 x_54)) ?v_150) ?v_151) (and (and (and (and (and (and (and (and (and (= x_122 1) (= x_124 x_112)) (= ?v_20 x_54)) (<= (+ ?v_20 x_47) x_59)) (or (and (and (= x_125 0) ?v_150) ?v_151) (and (and (= x_125 1) (= x_108 x_114)) (= x_121 (not x_108))))) (= x_126 x_117)) (= x_8 x_4)) (= x_10 x_6)) (= x_58 x_53)) ?v_152))) (or (or (and (and (and (= x_127 0) ?v_160) (or (not (<= x_55 ?v_154)) (= x_126 x_108))) ?v_155) (and (and (and (= x_127 1) ?v_153) (xor x_108 x_121)) (= x_60 ?v_161))) (and (and (and (= x_127 2) ?v_153) (= x_108 x_121)) ?v_155))) (or (or (and (and (and (= x_128 0) (not ?v_157)) (or (not ?v_156) (= x_123 x_5))) ?v_159) (and (and (and (= x_128 1) ?v_157) (xor x_5 x_9)) (= x_62 ?v_158))) (and (and (and (= x_128 2) ?v_157) (= x_5 x_9)) ?v_159))) (or (or (and (and (and (= x_129 0) ?v_160) (or (not (<= x_56 ?v_154)) (= x_10 x_7))) ?v_163) (and (and (and (= x_129 1) ?v_153) (not ?v_162)) (= x_61 ?v_161))) (and (and (and (= x_129 2) ?v_153) ?v_162) ?v_163))) (or (and (and (and (and (and (and (and (and (and (= x_110 0) (= x_4 x_111)) (= ?v_22 x_44)) (<= (+ ?v_22 x_46) x_53)) (or ?v_166 (= x_5 x_0))) (= x_112 x_113)) (= x_114 x_115)) (= x_54 x_45)) ?v_164) ?v_165) (and (and (and (and (and (and (and (and (and (= x_110 1) (= x_114 x_113)) (= ?v_22 x_45)) (<= (+ ?v_22 x_47) x_54)) (or (and (and (= x_116 0) ?v_164) ?v_165) (and (and (= x_116 1) (= x_109 x_115)) (= x_108 (not x_109))))) (= x_117 x_111)) (= x_4 x_0)) (= x_6 x_2)) (= x_53 x_44)) ?v_166))) (or (or (and (and (and (= x_118 0) ?v_174) (or (not (<= x_49 ?v_168)) (= x_117 x_109))) ?v_169) (and (and (and (= x_118 1) ?v_167) (xor x_109 x_108)) (= x_55 ?v_175))) (and (and (and (= x_118 2) ?v_167) (= x_109 x_108)) ?v_169))) (or (or (and (and (and (= x_119 0) (not ?v_171)) (or (not ?v_170) (= x_112 x_1))) ?v_173) (and (and (and (= x_119 1) ?v_171) (xor x_1 x_5)) (= x_57 ?v_172))) (and (and (and (= x_119 2) ?v_171) (= x_1 x_5)) ?v_173))) (or (or (and (and (and (= x_120 0) ?v_174) (or (not (<= x_50 ?v_168)) (= x_6 x_3))) ?v_177) (and (and (and (= x_120 1) ?v_167) (not ?v_176)) (= x_56 ?v_175))) (and (and (and (= x_120 2) ?v_167) ?v_176) ?v_177))) (xor x_205 x_206)) (not (= x_211 x_203)))))))))))))))))
(check-sat)
(exit)
